NAME: random-88-26157
TYPE: TSP
COMMENT: size=88 seed=26157
DIMENSION: 178
EDGE_WEIGHT_TYPE: EUC_2D
NODE_COORD_SECTION
+0 699 413
-0 699 413
+1 65 335
-1 598 67
+2 15 457
-2 23 763
+3 699 706
-3 453 786
+4 254 406
-4 117 128
+5 331 472
-5 278 610
+6 869 527
-6 508 358
+7 105 968
-7 512 90
+8 376 992
-8 479 886
+9 794 498
-9 369 165
+10 552 604
-10 107 617
+11 618 18
-11 709 60
+12 407 544
-12 454 109
+13 463 278
-13 17 245
+14 393 859
-14 256 923
+15 393 750
-15 105 200
+16 628 681
-16 622 725
+17 666 418
-17 674 961
+18 886 447
-18 973 42
+19 280 582
-19 779 571
+20 564 245
-20 248 128
+21 799 113
-21 206 250
+22 933 212
-22 463 547
+23 178 499
-23 797 46
+24 46 792
-24 298 953
+25 719 196
-25 483 388
+26 569 262
-26 553 321
+27 745 342
-27 730 536
+28 583 22
-28 127 611
+29 481 735
-29 958 767
+30 960 695
-30 792 364
+31 174 774
-31 537 285
+32 985 699
-32 847 720
+33 870 577
-33 542 670
+34 178 11
-34 74 758
+35 185 937
-35 957 824
+36 872 306
-36 757 531
+37 277 576
-37 965 453
+38 403 508
-38 828 38
+39 215 322
-39 865 547
+40 457 528
-40 240 438
+41 292 263
-41 255 550
+42 861 234
-42 625 103
+43 721 292
-43 382 898
+44 857 465
-44 663 556
+45 571 59
-45 831 880
+46 664 835
-46 800 167
+47 137 441
-47 686 578
+48 907 207
-48 935 608
+49 646 877
-49 926 427
+50 721 866
-50 886 464
+51 542 106
-51 708 149
+52 898 966
-52 826 463
+53 555 34
-53 95 934
+54 88 629
-54 30 272
+55 370 672
-55 222 697
+56 399 440
-56 10 487
+57 599 785
-57 648 760
+58 242 408
-58 522 807
+59 760 453
-59 375 466
+60 881 288
-60 72 389
+61 694 610
-61 81 957
+62 416 680
-62 803 932
+63 340 1
-63 51 171
+64 627 520
-64 624 132
+65 462 303
-65 382 974
+66 205 862
-66 807 325
+67 69 575
-67 234 177
+68 941 665
-68 613 166
+69 696 87
-69 0 690
+70 1 819
-70 979 583
+71 327 490
-71 293 347
+72 506 721
-72 264 378
+73 694 109
-73 9 573
+74 228 60
-74 250 796
+75 804 150
-75 646 966
+76 828 99
-76 851 59
+77 177 49
-77 273 514
+78 713 572
-78 865 726
+79 622 464
-79 828 898
+80 599 154
-80 18 332
+81 307 859
-81 212 128
+82 370 273
-82 283 513
+83 529 592
-83 350 232
+84 543 311
-84 518 952
+85 923 474
-85 314 196
+86 908 349
-86 650 5
+87 578 728
-87 419 445
+88 131 393
-88 37 975
PRECEDENCE_SECTION
+0 -0
+1 -1
+2 -2
+3 -3
+4 -4
+5 -5
+6 -6
+7 -7
+8 -8
+9 -9
+10 -10
+11 -11
+12 -12
+13 -13
+14 -14
+15 -15
+16 -16
+17 -17
+18 -18
+19 -19
+20 -20
+21 -21
+22 -22
+23 -23
+24 -24
+25 -25
+26 -26
+27 -27
+28 -28
+29 -29
+30 -30
+31 -31
+32 -32
+33 -33
+34 -34
+35 -35
+36 -36
+37 -37
+38 -38
+39 -39
+40 -40
+41 -41
+42 -42
+43 -43
+44 -44
+45 -45
+46 -46
+47 -47
+48 -48
+49 -49
+50 -50
+51 -51
+52 -52
+53 -53
+54 -54
+55 -55
+56 -56
+57 -57
+58 -58
+59 -59
+60 -60
+61 -61
+62 -62
+63 -63
+64 -64
+65 -65
+66 -66
+67 -67
+68 -68
+69 -69
+70 -70
+71 -71
+72 -72
+73 -73
+74 -74
+75 -75
+76 -76
+77 -77
+78 -78
+79 -79
+80 -80
+81 -81
+82 -82
+83 -83
+84 -84
+85 -85
+86 -86
+87 -87
+88 -88
EOF
